/*********************************************
 * OPL 12.9.0.0 Data
 * Author: Administrator
 * Creation Date: 2019年10月5日 at 下午4:10:06
 *********************************************/
nbJobs =5;
nbStages =2;
nbMach =[0,2,3];
nbWork =[0,2,2];
allMach = [0, 2, 5];
B=10000;
OpDurations = [
[9,9,52,63,67],
[107,116,60,65,69],
[102,107,70,92,96],
[58,70,35,37,41],
[16,16,52,52,55]
];
OpDue = [348,881,953,508,345];

 